# Objective value = 10
WA1n 0
WA1p 0
WA2n 0
WA2p 1
WB1n 0
WB1p 0
WB2n 0
WB2p 1
WC1n 0
WC1p 1
WC2n 0
WC2p 0
WD1n 0
WD1p 2
WD2n 0
WD2p 0
WE1n 3
WE1p 0
WE2n 0
WE2p 0
WT1n 0
WT1p 0
WT2n 0
WT2p 0
100 103
a 1
b 1
c 1
d 1
e 1
f 1
g 1
h 1
i 1
j 1
k 1
l 1
